7
638158,6137786-639863,6162558-704930,6173568-718939,6174629-677908,6150220-574602,6226391-573516,6226689-570782,6224793-570158,6224087-571521,6221261
723944,6177582-724421,6180436-724034,6180167-724079,6179620-677908,6150220-563954,6257950-565931,6236972-532891,6223718-537062,6222060
685597,6157244-718607,6191423-721747,6191123-717829,6187552-716296,6180966-677908,6150220
703791,6210825-720683,6220162-720260,6207482-708746,6197146-677908,6150220-602301,6147956-545234,6089613-471662,6105055-513415,6173759
657716,6156345-677908,6150220-588124,6228133-575704,6232998-559352,6219725-532974,6172680
689170,6099308-721520,6174303-677908,6150220-570063,6255827-498716,6221569-445420,6212541
-677908,6150220
